c 1 22 2 23 3 27 14 7 15 8 16 9 4 5 6 10 11 12 13 17 18 19 20 21 24 25 26 28 
p wcnf 35 28 4
4 -1 4 
4 -2 5 
4 -3 6 
4 -7 1 
4 -8 1 
4 -9 1 
4 -7 10 
4 -7 11 
4 -8 11 
4 -8 12 
4 -9 12 
4 -9 13 
4 -14 1 
4 -15 1 
4 -16 1 
4 -14 17 
4 -14 18 
4 -14 19 
4 -15 18 
4 -15 19 
4 -15 20 
4 -16 19 
4 -16 20 
4 -16 21 
4 -22 7 
4 -23 7 
4 -22 24 
4 -22 25 
4 -23 25 
4 -23 26 
4 -27 14 22 
4 -27 28 
4 7 8 9 14 15 16 
4 7 8 9 14 15 16 22 23 
2 27 
